HUN,8,6,570
1,7,0,21,2,14,4,11,5,8,3,12
2,6,1,15,0,26,4,30,3,23,5,26
2,22,0,22,1,23,4,7,5,23,3,16
1,20,2,23,0,4,3,7,5,10,4,4
0,16,1,7,2,22,5,25,4,22,3,10
1,2,2,16,0,21,4,6,3,14,5,19
0,15,2,17,1,24,3,9,4,4,5,29
0,16,2,17,1,13,5,4,4,1,3,4
